data/solutions/recovery/wellformed/moderate/binding/wellformed_moderate_instance64/25.sol
Elapsed time: 0.02
Upper bound: 5262.0
Planning weighted value: 176799.0
C[0]=5262.0
C[1]=4999.0
C[2]=4891.0
C[3]=4292.0
C[4]=0.0
y[0]=3
y[1]=0
y[2]=2
y[3]=2
y[4]=2
y[5]=2
y[6]=0
y[7]=2
y[8]=2
y[9]=1
y[10]=1
y[11]=1
y[12]=2
y[13]=2
y[14]=3
y[15]=0
y[16]=2
y[17]=3
y[18]=1
y[19]=0
y[20]=1
y[21]=2
y[22]=1
y[23]=1
y[24]=1
y[25]=1
y[26]=1
y[27]=3
y[28]=0
y[29]=0
y[30]=3
y[31]=0
y[32]=3
y[33]=3
y[34]=2
y[35]=1
y[36]=1
y[37]=2
y[38]=0
y[39]=0
y[40]=3
