data/solutions/recovery/wellformed/moderate/binding/wellformed_moderate_instance64/25.log

Log started (V12.6.3.0) Fri Apr 20 17:49:35 2018

New value for default parallel thread count: 1

Problem '/tmp/tmpzt_DW_.pyomo.lp' read.
Read time = 0.00 sec. (0.08 ticks)

Problem name         : /tmp/tmpzt_DW_.pyomo.lp
Objective sense      : Minimize
Variables            :     212  [Nneg: 1,  Binary: 205,  General Integer: 6]
Objective nonzeros   :       1
Linear constraints   :      94  [Less: 46,  Equal: 48]
  Nonzeros           :    5695
  RHS nonzeros       :      42

Variables            : Min LB: 0.000000         Max UB: 1.000000       
Objective nonzeros   : Min   : 1.000000         Max   : 1.000000       
Linear constraints   :
  Nonzeros           : Min   : 1.000000         Max   : 1963.000       
  RHS nonzeros       : Min   : 1.000000         Max   : 1.000000       
Tried aggregator 2 times.
MIP Presolve eliminated 78 rows and 175 columns.
MIP Presolve modified 2 coefficients.
Aggregator did 4 substitutions.
Reduced MIP has 12 rows, 33 columns, and 68 nonzeros.
Reduced MIP has 32 binaries, 1 generals, 0 SOSs, and 0 indicators.
Presolve time = 0.00 sec. (0.51 ticks)
Found incumbent of value 10501.000000 after 0.00 sec. (0.67 ticks)
Probing time = 0.00 sec. (0.02 ticks)
Tried aggregator 1 time.
Reduced MIP has 12 rows, 33 columns, and 68 nonzeros.
Reduced MIP has 32 binaries, 1 generals, 0 SOSs, and 0 indicators.
Presolve time = 0.00 sec. (0.04 ticks)
Probing time = 0.00 sec. (0.02 ticks)
Clique table members: 8.
MIP emphasis: balance optimality and feasibility.
MIP search method: dynamic search.
Parallel mode: none, using 1 thread.
Root relaxation solution time = 0.00 sec. (0.04 ticks)

        Nodes                                         Cuts/
   Node  Left     Objective  IInf  Best Integer    Best Bound    ItCnt     Gap

*     0+    0                        10501.0000     5262.0000            49.89%
      0     0     5262.0000     4    10501.0000     5262.0000       16   49.89%
*     0+    0                         5262.0000     5262.0000             0.00%
      0     0        cutoff           5262.0000     5262.0000       16    0.00%
Elapsed time = 0.00 sec. (0.85 ticks, tree = 0.01 MB, solutions = 2)

Root node processing (before b&c):
  Real time             =    0.00 sec. (0.86 ticks)
Sequential b&c:
  Real time             =    0.00 sec. (0.00 ticks)
                          ------------
Total (root+branch&cut) =    0.00 sec. (0.86 ticks)

Solution pool: 2 solutions saved.

MIP - Integer optimal solution:  Objective =  5.2620000000e+03
Solution time =    0.00 sec.  Iterations = 16  Nodes = 0
Deterministic time = 0.86 ticks  (359.62 ticks/sec)


Incumbent solution written to file '/tmp/tmpaUIWGF.cplex.sol'.

Log started (V12.6.3.0) Fri Apr 20 17:52:39 2018

New value for default parallel thread count: 1

Problem '/tmp/tmpAXuEge.pyomo.lp' read.
Read time = 0.00 sec. (0.08 ticks)

Problem name         : /tmp/tmpAXuEge.pyomo.lp
Objective sense      : Minimize
Variables            :     212  [Nneg: 1,  Binary: 205,  General Integer: 6]
Objective nonzeros   :       1
Linear constraints   :      94  [Less: 46,  Equal: 48]
  Nonzeros           :    5695
  RHS nonzeros       :      42

Variables            : Min LB: 0.000000         Max UB: 1.000000       
Objective nonzeros   : Min   : 1.000000         Max   : 1.000000       
Linear constraints   :
  Nonzeros           : Min   : 1.000000         Max   : 1963.000       
  RHS nonzeros       : Min   : 1.000000         Max   : 1.000000       
Tried aggregator 2 times.
MIP Presolve eliminated 78 rows and 175 columns.
MIP Presolve modified 2 coefficients.
Aggregator did 4 substitutions.
Reduced MIP has 12 rows, 33 columns, and 68 nonzeros.
Reduced MIP has 32 binaries, 1 generals, 0 SOSs, and 0 indicators.
Presolve time = 0.00 sec. (0.51 ticks)
Found incumbent of value 10501.000000 after 0.00 sec. (0.67 ticks)
Probing time = 0.00 sec. (0.02 ticks)
Tried aggregator 1 time.
Reduced MIP has 12 rows, 33 columns, and 68 nonzeros.
Reduced MIP has 32 binaries, 1 generals, 0 SOSs, and 0 indicators.
Presolve time = 0.00 sec. (0.04 ticks)
Probing time = 0.00 sec. (0.02 ticks)
Clique table members: 8.
MIP emphasis: balance optimality and feasibility.
MIP search method: dynamic search.
Parallel mode: none, using 1 thread.
Root relaxation solution time = 0.00 sec. (0.04 ticks)

        Nodes                                         Cuts/
   Node  Left     Objective  IInf  Best Integer    Best Bound    ItCnt     Gap

*     0+    0                        10501.0000     5262.0000            49.89%
      0     0     5262.0000     4    10501.0000     5262.0000       16   49.89%
*     0+    0                         5262.0000     5262.0000             0.00%
      0     0        cutoff           5262.0000     5262.0000       16    0.00%
Elapsed time = 0.00 sec. (0.85 ticks, tree = 0.01 MB, solutions = 2)

Root node processing (before b&c):
  Real time             =    0.00 sec. (0.86 ticks)
Sequential b&c:
  Real time             =    0.00 sec. (0.00 ticks)
                          ------------
Total (root+branch&cut) =    0.00 sec. (0.86 ticks)

Solution pool: 2 solutions saved.

MIP - Integer optimal solution:  Objective =  5.2620000000e+03
Solution time =    0.00 sec.  Iterations = 16  Nodes = 0
Deterministic time = 0.86 ticks  (294.26 ticks/sec)


Incumbent solution written to file '/tmp/tmp33Z2Z9.cplex.sol'.
